c Sudoku solution
p cnf 729 0
119 0
122 0
161 0
184 0
231 0
254 0
282 0
315 0
346 0
369 0
352 0
434 0
324 0
543 0
551 0
564 0
589 0
642 0
693 0
674 0
723 0
413 0
775 0
814 0
855 0
878 0
927 0
935 0
948 0
744 0
841 0
994 0
449 0
496 0
472 0
577 0
147 0
245 0
195 0
217 0
637 0
629 0
421 0
618 0
525 0
681 0
598 0
485 0
665 0
656 0
738 0
228 0
136 0
333 0
173 0
371 0
276 0
299 0
158 0
263 0
826 0
839 0
516 0
532 0
953 0
759 0
979 0
883 0
457 0
468 0
986 0
791 0
892 0
787 0
712 0
911 0
766 0
962 0
867 0
388 0
397 0
